
Gurobi 11.0.3 (linux64) logging started Sun Nov 24 23:58:18 2024

Set parameter LogFile to value "/home/yihong/Coding/OR_SUC/SUC_results_bigM100000_thread4/case24_ieee_rts_theta0.5_epsilon0.025_gurobi_seed1260000_num_gen100_N_WDR100_load_scaling_factor1_proposed_T8quadra_cost.txt"
Set parameter TimeLimit to value 3600
Gurobi Optimizer version 11.0.3 build v11.0.3rc0 (linux64 - "Ubuntu 20.04.6 LTS")

CPU model: AMD EPYC 7532 32-Core Processor, instruction set [SSE2|AVX|AVX2]
Thread count: 64 physical cores, 128 logical processors, using up to 4 threads

Optimize a model with 16982 rows, 10021 columns and 235066 nonzeros
Model fingerprint: 0x642bcc79
Model has 800 quadratic constraints
Variable types: 9221 continuous, 800 integer (800 binary)
Coefficient statistics:
  Matrix range     [3e-04, 3e+03]
  QMatrix range    [2e-03, 8e-03]
  QLMatrix range   [3e-02, 6e+01]
  Objective range  [1e+00, 1e+00]
  Bounds range     [1e+00, 1e+00]
  RHS range        [1e+00, 9e+03]
Presolve removed 13918 rows and 4498 columns
Presolve time: 0.07s
Presolved: 3064 rows, 5523 columns, 18727 nonzeros
Presolved model has 800 quadratic constraint(s)
Variable types: 4723 continuous, 800 integer (800 binary)

Root relaxation: objective 2.650895e+04, 2668 iterations, 0.04 seconds (0.05 work units)

    Nodes    |    Current Node    |     Objective Bounds      |     Work
 Expl Unexpl |  Obj  Depth IntInf | Incumbent    BestBd   Gap | It/Node Time

H    0     0                    176344.37539 26508.9526  85.0%     -    0s
*    0     0               0    176344.37539 26508.9526  85.0%     -    0s
     0     0 59089.8322    0  382 176344.375 59089.8322  66.5%     -    0s
     0     0 165863.641    0   21 176344.375 165863.641  5.94%     -    0s
     0     0 165869.366    0   21 176344.375 165869.366  5.94%     -    0s
     0     0 165927.954    0    9 176344.375 165927.954  5.91%     -    0s
     0     0 165928.124    0    9 176344.375 165928.124  5.91%     -    0s
     0     0 165928.921    0   10 176344.375 165928.921  5.91%     -    0s
     0     0 165929.147    0   10 176344.375 165929.147  5.91%     -    0s
     0     2 165929.147    0   10 176344.375 165929.147  5.91%     -    0s
H   34    41                    165950.19125 165930.275  0.01%  10.6    0s

Cutting planes:
  Gomory: 35
  Implied bound: 122
  MIR: 14
  Flow cover: 97
  RLT: 159
  Relax-and-lift: 62

Explored 40 nodes (8301 simplex iterations) in 0.78 seconds (0.72 work units)
Thread count was 4 (of 128 available processors)

Solution count 2: 165950 176344 

Optimal solution found (tolerance 1.00e-03)
Warning: max constraint violation (4.1573e-09) exceeds tolerance
Best objective 1.659501912498e+05, best bound 1.659302747130e+05, gap 0.0120%
